122
1 0
2 0
3 0
4 0
5 6
6 8
7 6
8 11
9 6
10 19
11 10
12 10
13 16
14 20
15 16
16 24
17 42
18 27
19 20
20 23
21 28
22 35
23 15
24 16
25 8
26 59
27 35
28 31
29 38
30 39
31 33
32 20
33 52
34 10
35 36
36 32
37 20
38 36
39 43
40 27
41 33
42 39
43 46
44 45
45 23
46 48
47 56
48 38
49 48
50 39
51 48
52 32
53 40
54 64
55 33
56 24
57 50
58 46
59 68
60 21
61 46
62 42
63 80
64 57
65 51
66 21
67 46
68 88
69 55
70 22
71 18
72 45
73 52
74 18
75 60
76 89
77 32
78 52
79 60
80 66
81 64
82 56
83 15
84 34
85 73
86 60
87 31
88 74
89 78
90 24
91 63
92 55
93 74
94 78
95 60
96 88
97 88
98 73
99 52
100 73
101 95
102 93
103 68
104 98
105 74
106 84
107 61
108 39
109 77
110 100
111 89
112 77
113 35
114 84
115 39
116 84
117 93
118 98
119 108
120 109
121 81
122 115
